c RoundingSat 2
c branch HEAD
c commit c548e10
c #variables 32 #constraints 274
c cpu time 0.005465 s
c deterministic time 220411 2.20e+05
c optimization time 1.8e-05 s
c total solve time 0.004736 s
c core-guided solve time 0 s
c propagation time 0.002352 s
c conflict analysis time 0.001816 s
c propagations 5114
c resolve steps 1703
c decisions 658
c conflicts 479
c restarts 4
c inprocessing phases 0
c input clauses 273
c input cardinalities 1
c input general constraints 0
c input average constraint length 8.23
c input average constraint degree 1.08
c learned clauses 249
c learned cardinalities 114
c learned general constraints 116
c learned average constraint length 13.12
c learned average constraint degree 4.99
c watched constraints 38
c counting constraints 78
c gcd simplifications 13
c detected cardinalities 26
c weakened non-implied lits 2809
c weakened non-implying lits 1
c original variables 32
c clausal propagations 1263
c cardinality propagations 2259
c watched propagations 72
c counting propagations 566
c watch lookups 54162
c watch backjump lookups 19720
c watch checks 81205
c propagation checks 27445
c constraint additions 25855
c trail pops 6251
c formula constraints 274
c learned constraints 479
c bound constraints 0
c core-guided constraints 0
c encountered formula constraints 1022
c encountered learned constraints 1160
c encountered bound constraints 0
c encountered core-guided constraints 0
c LP total time 0 s
c LP solve time 0 s
c LP constraints added 0
c LP constraints removed 0
c LP pivots internal 0
c LP pivots root 0
c LP calls 0
c LP optimalities 0
c LP no pivot count 0
c LP infeasibilities 0
c LP valid Farkas constraints 0
c LP learned Farkas constraints 0
c LP basis resets 0
c LP cycling count 0
c LP singular count 0
c LP no primal count 0
c LP no farkas count 0
c LP other issue count 0
c LP Gomory cuts 0
c LP learned cuts 0
c LP deleted cuts 0
c LP encountered Gomory constraints 0
c LP encountered Farkas constraints 0
c LP encountered learned Farkas constraints 0
c CG auxiliary variables introduced 0
c CG solutions found 0
c CG cores constructed 0
c CG core cardinality constraints returned 0
c CG unit cores 0
c CG single cores 0
c CG blocks removed during cardinality reduction 0
c CG first core best 0
c CG decision core best 0
c CG core reduction tie 0
c CG core degree average 0.00
c CG core slack average 0.00
s SATISFIABLE
v -x1 x2 -x3 -x4 -x5 x6 -x7 x8 -x9 -x10 -x11 x12 -x13 -x14 -x15 x16 x17 -x18 -x19 -x20 x21 -x22 x23 -x24 -x25 -x26 -x27 -x28 x29 x30 -x31 -x32
